10
2147483647 59 59 23 35 72 7 54 23 3 
59 2147483647 85 59 94 12 88 64 23 72 
59 85 2147483647 98 84 52 67 10 91 40 
23 59 98 2147483647 34 55 48 91 58 42 
35 94 84 34 2147483647 13 47 22 82 47 
72 12 52 55 13 2147483647 51 75 35 44 
7 88 67 48 47 51 2147483647 99 40 17 
54 64 10 91 22 75 99 2147483647 9 5 
23 23 91 58 82 35 40 9 2147483647 17 
3 72 40 42 47 44 17 5 17 2147483647 
